20221024_PCST_ILP/Steiner1_dir_FC3_PtoC1_evid0.7_maxSt2_45_50.sol
# Objective value = -7.9742964086633634e+00
x_Rad23_Rpn11 0
x_Rpn11_Nip1 0
x_Nip1_Ded1 0
x_Rad23_Rps31 1
x_Rps31_Nip1 0
x_Rps31_Prt1 1
x_Prt1_Ded1 1
x_Rps31_Rpg1 1
x_Rpg1_Ded1 1
x_Rps31_Tif35 1
x_Tif35_Ded1 1
x_Prm15_Cof1 1
x_Cof1_Act1 1
x_Act1_Crn1 1
x_Cof1_Arp9 1
x_Arp9_Rsc9 1
y_Rad23 1
y_Rpn11 0
y_Nip1 0
y_Rps31 1
y_Prt1 1
y_Rpg1 1
y_Tif35 1
y_Prm15 1
y_Cof1 1
y_Act1 1
y_Arp9 1
y_Ded1 1
y_Crn1 1
y_Rsc9 1
